0 156 152 2 73 171 41 56 55 165 155 110 195 180 105 
0 102 3 78 164 136 65 30 90 126 49 190 
0 53 134 196 157 81 34 103 128 189 123 162 
0 111 120 66 160 181 108 70 31 167 
0 104 99 118 125 45 174 17 119 14 192 94 
0 52 182 48 124 47 36 64 63 20 161 35 51 
0 133 39 170 80 121 79 188 32 122 101 1 69 146 
0 40 198 25 67 72 74 145 115 42 37 91 85 98 95 
0 12 150 68 24 29 129 185 62 107 19 46 8 114 199 84 173 60 
0 83 18 153 194 148 10 131 135 33 109 177 54 179 149 
0 58 97 100 142 172 22 75 186 197 163 9 71 176 
0 76 77 138 154 21 139 187 23 178 144 89 
0 116 158 169 50 159 175 5 191 59 112 
0 27 28 26 184 132 11 143 168 166 44 193 151 96 
0 183 137 87 57 15 43 38 141 61 82 106 7 88 127 
0 130 4 13 117 92 93 16 113 86 140 6 147 
